solution status: time limit reached
objective value:                                  172
shell_j_$_26__4                                     1 	(obj:0)
shell_j_$_109                                       1 	(obj:0)
shell_j_$_79                                        1 	(obj:0)
shell_j_$_100__4                                    1 	(obj:0)
shell_i_$_134__4                                    1 	(obj:0)
shell_j_$_134__4                                    1 	(obj:0)
shell_j_$_73                                        1 	(obj:0)
shell_j_$_9__4                                      1 	(obj:0)
shell_j_thing.thing.chamber[1].thingy.r1c__4                    1 	(obj:0)
shell_j_$_5__4                                      1 	(obj:0)
shell_i_thing.thing.chamber[2].thingy.v4__4                    1 	(obj:0)
shell_j_thing.thing.chamber[1].thingy.r2c__4                    1 	(obj:0)
shell_i_$_66                                        1 	(obj:0)
shell_j_$_131                                       1 	(obj:0)
shell_j_$_16__4                                     1 	(obj:0)
shell_j_$_122__4                                    1 	(obj:0)
shell_j_$_137__4                                    1 	(obj:0)
shell_j_$_98__4                                     1 	(obj:0)
shell_i_$_143__4                                    1 	(obj:0)
shell_j_$_11__4                                     1 	(obj:0)
shell_i_$_23__4                                     1 	(obj:0)
shell_j_$_20__4                                     1 	(obj:0)
shell_i_$_25__4                                     1 	(obj:0)
shell_j_$_123__4                                    1 	(obj:0)
shell_i_$_148__4                                    1 	(obj:0)
shell_j_$_93__4                                     1 	(obj:0)
shell_j_$_22__4                                     1 	(obj:0)
shell_j_$_84__4                                     1 	(obj:0)
shell_j_$_115__4                                    1 	(obj:0)
shell_j_$_21__4                                     1 	(obj:0)
shell_i_thing.thing.chamber[0].thingy.r1c__4                    1 	(obj:0)
shell_j_$_15                                        1 	(obj:0)
shell_j_$_125__4                                    1 	(obj:0)
shell_i_$_13                                        1 	(obj:0)
shell_j_$_110                                       1 	(obj:0)
shell_i_$_102__4                                    1 	(obj:0)
shell_j_$_102__4                                    1 	(obj:0)
shell_i_$_10__4                                     1 	(obj:0)
shell_j_$_3__4                                      1 	(obj:0)
shell_i_thing.thing.chamber[1].thingy.r4c__4                    1 	(obj:0)
shell_j_thing.thing.chamber[1].thingy.r4c__4                    1 	(obj:0)
shell_j_$_2__4                                      1 	(obj:0)
shell_j_$_105                                       1 	(obj:0)
shell_j_$_71                                        1 	(obj:0)
shell_j_$_147__4                                    1 	(obj:0)
shell_j_$_107                                       1 	(obj:0)
shell_j_$_4__4                                      1 	(obj:0)
shell_j_$_6__4                                      1 	(obj:0)
shell_i_$_8__4                                      1 	(obj:0)
shell_j_$_120__4                                    1 	(obj:0)
shell_j_$_7__4                                      1 	(obj:0)
shell_i_$_88__4                                     1 	(obj:0)
shell_j_$_104__4                                    1 	(obj:0)
shell_j_$_18__4                                     1 	(obj:0)
shell_j_$_101__4                                    1 	(obj:0)
shell_j_$_19__4                                     1 	(obj:0)
shell_i_$_86__4                                     1 	(obj:0)
shell_j_$_86__4                                     1 	(obj:0)
shell_i_$_96__4                                     1 	(obj:0)
shell_j_$_133                                       1 	(obj:0)
shell_j_$_12__4                                     1 	(obj:0)
shell_j_$_17__4                                     1 	(obj:0)
$_148__4_y                                         -5 	(obj:0)
$_148__4_z                                         25 	(obj:0)
thing.thing.chamber[2].thingy.v4__4_y                    2 	(obj:0)
thing.thing.chamber[2].thingy.v4__4_z                   17 	(obj:0)
$_93__4_y                                           6 	(obj:0)
$_93__4_z                                          17 	(obj:0)
$_109_y                                             6 	(obj:0)
$_109_z                                            11 	(obj:0)
$_22__4_x                                           4 	(obj:0)
$_22__4_y                                           6 	(obj:0)
$_22__4_z                                          11 	(obj:0)
thing.thing.chamber[1].thingy.r2c__4_x                   -1 	(obj:0)
thing.thing.chamber[1].thingy.r2c__4_y                    6 	(obj:0)
$_84__4_y                                           6 	(obj:0)
$_84__4_z                                           9 	(obj:0)
thing.thing.chamber[1].thingy.r2c__4_z                   12 	(obj:0)
$_134__4_x                                         -6 	(obj:0)
$_115__4_x                                         -2 	(obj:0)
$_115__4_y                                          6 	(obj:0)
$_115__4_z                                         14 	(obj:0)
$_134__4_y                                          6 	(obj:0)
$_66_x                                             -6 	(obj:0)
$_21__4_x                                          -2 	(obj:0)
$_21__4_y                                           6 	(obj:0)
$_21__4_z                                          17 	(obj:0)
$_66_y                                              5 	(obj:0)
$_66_z                                             15 	(obj:0)
thing.thing.chamber[0].thingy.r1c__4_x                   -6 	(obj:0)
thing.thing.chamber[0].thingy.r1c__4_y                    6 	(obj:0)
thing.thing.chamber[0].thingy.r1c__4_z                    9 	(obj:0)
$_134__4_z                                         13 	(obj:0)
$_26__4_z                                           7 	(obj:0)
$_15_x                                             -6 	(obj:0)
$_15_y                                              6 	(obj:0)
$_15_z                                              8 	(obj:0)
$_131_x                                            -2 	(obj:0)
$_131_y                                             6 	(obj:0)
$_125__4_x                                         -6 	(obj:0)
$_125__4_y                                          6 	(obj:0)
$_125__4_z                                         10 	(obj:0)
$_131_z                                            13 	(obj:0)
$_26__4_x                                          -6 	(obj:0)
$_13_x                                             -6 	(obj:0)
$_13_y                                              2 	(obj:0)
$_13_z                                             11 	(obj:0)
$_73_x                                             -3 	(obj:0)
$_16__4_x                                           1 	(obj:0)
$_110_x                                            -5 	(obj:0)
$_110_y                                             6 	(obj:0)
$_110_z                                            13 	(obj:0)
$_16__4_y                                           6 	(obj:0)
$_16__4_z                                          23 	(obj:0)
$_102__4_x                                         -6 	(obj:0)
$_102__4_y                                          6 	(obj:0)
$_102__4_z                                         16 	(obj:0)
$_73_y                                              6 	(obj:0)
$_73_z                                             17 	(obj:0)
$_10__4_x                                          -6 	(obj:0)
$_10__4_y                                           2 	(obj:0)
$_10__4_z                                          12 	(obj:0)
$_122__4_x                                          1 	(obj:0)
$_122__4_y                                          6 	(obj:0)
$_3__4_x                                           -2 	(obj:0)
$_3__4_y                                            6 	(obj:0)
$_3__4_z                                           25 	(obj:0)
$_122__4_z                                         19 	(obj:0)
$_79_x                                             -3 	(obj:0)
thing.thing.chamber[1].thingy.r4c__4_x                   -6 	(obj:0)
thing.thing.chamber[1].thingy.r4c__4_y                    6 	(obj:0)
thing.thing.chamber[1].thingy.r4c__4_z                   15 	(obj:0)
$_79_y                                              6 	(obj:0)
$_137__4_x                                         -6 	(obj:0)
$_2__4_x                                            1 	(obj:0)
$_2__4_y                                            6 	(obj:0)
$_2__4_z                                           25 	(obj:0)
$_137__4_y                                          6 	(obj:0)
$_137__4_z                                         18 	(obj:0)
$_105_x                                            -6 	(obj:0)
$_105_y                                             6 	(obj:0)
$_105_z                                            17 	(obj:0)
$_9__4_x                                           -2 	(obj:0)
$_9__4_y                                            6 	(obj:0)
$_71_x                                             -6 	(obj:0)
$_71_y                                              6 	(obj:0)
$_71_z                                             12 	(obj:0)
$_98__4_y                                           6 	(obj:0)
$_147__4_x                                         -2 	(obj:0)
$_147__4_y                                          6 	(obj:0)
$_147__4_z                                         19 	(obj:0)
$_98__4_z                                          19 	(obj:0)
$_9__4_z                                            8 	(obj:0)
$_107_x                                            -2 	(obj:0)
$_107_y                                             6 	(obj:0)
$_107_z                                            15 	(obj:0)
$_79_z                                             13 	(obj:0)
$_143__4_x                                         -6 	(obj:0)
$_4__4_y                                            6 	(obj:0)
$_4__4_z                                           23 	(obj:0)
$_143__4_y                                          6 	(obj:0)
$_143__4_z                                         19 	(obj:0)
$_6__4_x                                           -3 	(obj:0)
$_6__4_y                                            6 	(obj:0)
$_6__4_z                                           14 	(obj:0)
$_26__4_y                                           6 	(obj:0)
thing.thing.chamber[1].thingy.r1c__4_x                   -5 	(obj:0)
$_8__4_x                                           -6 	(obj:0)
$_8__4_y                                            1 	(obj:0)
$_8__4_z                                           21 	(obj:0)
$_11__4_x                                          -1 	(obj:0)
$_11__4_y                                           6 	(obj:0)
$_120__4_x                                         -2 	(obj:0)
$_120__4_y                                          6 	(obj:0)
$_120__4_z                                         21 	(obj:0)
$_11__4_z                                          13 	(obj:0)
thing.thing.chamber[1].thingy.r1c__4_y                    6 	(obj:0)
$_7__4_y                                            6 	(obj:0)
$_7__4_z                                           18 	(obj:0)
thing.thing.chamber[1].thingy.r1c__4_z                   14 	(obj:0)
$_23__4_x                                          -6 	(obj:0)
$_88__4_x                                          -6 	(obj:0)
$_88__4_y                                           1 	(obj:0)
$_88__4_z                                          14 	(obj:0)
$_23__4_y                                           1 	(obj:0)
$_23__4_z                                          10 	(obj:0)
$_104__4_x                                         -2 	(obj:0)
$_104__4_y                                          6 	(obj:0)
$_104__4_z                                          9 	(obj:0)
$_109_x                                            -2 	(obj:0)
$_100__4_x                                          4 	(obj:0)
$_18__4_x                                           3 	(obj:0)
$_18__4_y                                           6 	(obj:0)
$_18__4_z                                          25 	(obj:0)
$_20__4_x                                          -6 	(obj:0)
$_20__4_y                                           6 	(obj:0)
$_101__4_x                                         -6 	(obj:0)
$_101__4_y                                          6 	(obj:0)
$_101__4_z                                         20 	(obj:0)
$_20__4_z                                          11 	(obj:0)
$_19__4_x                                           4 	(obj:0)
$_19__4_y                                           6 	(obj:0)
$_19__4_z                                          24 	(obj:0)
$_5__4_y                                            6 	(obj:0)
$_25__4_x                                          -6 	(obj:0)
$_86__4_x                                          -6 	(obj:0)
$_86__4_y                                           6 	(obj:0)
$_86__4_z                                          14 	(obj:0)
$_25__4_y                                           6 	(obj:0)
$_25__4_z                                          21 	(obj:0)
$_96__4_x                                          -6 	(obj:0)
$_96__4_y                                           2 	(obj:0)
$_96__4_z                                          10 	(obj:0)
$_5__4_z                                           16 	(obj:0)
$_100__4_y                                          6 	(obj:0)
$_133_x                                            -4 	(obj:0)
$_133_y                                             6 	(obj:0)
$_133_z                                            17 	(obj:0)
$_123__4_x                                          4 	(obj:0)
$_123__4_y                                          6 	(obj:0)
$_12__4_x                                          -2 	(obj:0)
$_12__4_y                                           6 	(obj:0)
$_12__4_z                                          20 	(obj:0)
$_123__4_z                                         21 	(obj:0)
$_100__4_z                                         18 	(obj:0)
$_17__4_x                                          -2 	(obj:0)
$_17__4_y                                           6 	(obj:0)
$_17__4_z                                          24 	(obj:0)
thing.thing.chamber[2].thingy.v4__4_x                   -6 	(obj:0)
$_148__4_x                                         -6 	(obj:0)
x293                                                2 	(obj:1)
x294                                                4 	(obj:1)
x296                                                2 	(obj:1)
x297                                                3 	(obj:1)
x300                                                4 	(obj:1)
x305                                                4 	(obj:1)
x306                                                2 	(obj:1)
x309                                                4 	(obj:1)
x312                                                1 	(obj:1)
x321                                                4 	(obj:1)
x323                                                4 	(obj:1)
x327                                                3 	(obj:1)
x329                                                4 	(obj:1)
x330                                                4 	(obj:1)
x333                                                4 	(obj:1)
x335                                                4 	(obj:1)
x344                                                3 	(obj:1)
x350                                                4 	(obj:1)
x353                                                4 	(obj:1)
x357                                                4 	(obj:1)
x361                                                4 	(obj:1)
x366                                                4 	(obj:1)
x368                                                4 	(obj:1)
x369                                                4 	(obj:1)
x371                                                4 	(obj:1)
x372                                                4 	(obj:1)
x380                                                2 	(obj:1)
x383                                                2 	(obj:1)
x386                                                3 	(obj:1)
x388                                                4 	(obj:1)
x389                                                3 	(obj:1)
x390                                                1 	(obj:1)
x397                                                4 	(obj:1)
x398                                                4 	(obj:1)
x399                                                4 	(obj:1)
x402                                                2 	(obj:1)
x417                                                4 	(obj:1)
x419                                                4 	(obj:1)
x420                                                4 	(obj:1)
x423                                                4 	(obj:1)
x430                                                4 	(obj:1)
x432                                                4 	(obj:1)
x439                                                4 	(obj:1)
x443                                                3 	(obj:1)
x444                                                4 	(obj:1)
x450                                                4 	(obj:1)
x458                                                4 	(obj:1)
x459                                                2 	(obj:1)
x462                                                2 	(obj:1)
x465                                                4 	(obj:1)
